50

99 2 297
96 26 298
94 29 284
94 17 299
90 23 277
90 24 272
90 24 287
90 26 293
87 16 282
86 14 281
85 20 256
85 4 263
84 16 293
84 24 289
84 26 259
84 11 269
84 23 288
83 24 271
81 4 289
81 23 281
79 19 251
71 19 269
71 21 261
70 16 288
65 2 295
65 17 247
65 1 254
63 2 252
62 12 233
59 14 296
51 4 282
51 7 268
50 8 253
49 11 299
49 0 172
49 1 293
47 5 148
45 4 175
44 12 288
43 7 203
41 6 146
35 6 297
35 5 180
33 9 289
31 2 265
27 9 135
23 7 201
23 7 111
22 6 166
22 7 261
